(set-info :smt-lib-version 2.6)
(set-logic QF_LRA)
(set-info :source |
The Formal Verification of a Reintegration Protocol. Author: Lee Pike. Website: http://www.cs.indiana.edu/~lepike/pub_pages/emsoft.html.

This benchmark was automatically translated into SMT-LIB format from
CVC format using CVC Lite
|)
(set-info :category "industrial")
(set-info :status unsat)
(declare-fun x_0 () Real)
(declare-fun x_1 () Real)
(declare-fun x_2 () Real)
(declare-fun x_3 () Real)
(declare-fun x_4 () Real)
(declare-fun x_5 () Real)
(declare-fun x_6 () Real)
(declare-fun x_7 () Real)
(declare-fun x_8 () Real)
(declare-fun x_9 () Real)
(declare-fun x_10 () Bool)
(declare-fun x_11 () Bool)
(declare-fun x_12 () Bool)
(declare-fun x_13 () Real)
(declare-fun x_14 () Bool)
(declare-fun x_15 () Real)
(declare-fun x_16 () Bool)
(declare-fun x_17 () Real)
(declare-fun x_18 () Real)
(declare-fun x_19 () Bool)
(declare-fun x_20 () Bool)
(declare-fun x_21 () Bool)
(declare-fun x_22 () Real)
(declare-fun x_23 () Bool)
(declare-fun x_24 () Real)
(declare-fun x_25 () Bool)
(declare-fun x_26 () Real)
(declare-fun x_27 () Bool)
(declare-fun x_28 () Bool)
(declare-fun x_29 () Bool)
(declare-fun x_30 () Real)
(declare-fun x_31 () Bool)
(declare-fun x_32 () Real)
(declare-fun x_33 () Real)
(declare-fun x_34 () Bool)
(declare-fun x_35 () Real)
(declare-fun x_36 () Real)
(declare-fun x_37 () Real)
(declare-fun x_38 () Real)
(declare-fun x_39 () Real)
(declare-fun x_40 () Real)
(declare-fun x_41 () Bool)
(declare-fun x_42 () Bool)
(declare-fun x_43 () Bool)
(declare-fun x_44 () Bool)
(declare-fun x_45 () Bool)
(declare-fun x_46 () Bool)
(declare-fun x_47 () Bool)
(declare-fun x_48 () Bool)
(declare-fun x_49 () Real)
(declare-fun x_50 () Real)
(declare-fun x_51 () Real)
(declare-fun x_52 () Real)
(declare-fun x_53 () Real)
(declare-fun x_54 () Real)
(declare-fun x_55 () Real)
(declare-fun x_56 () Bool)
(declare-fun x_57 () Bool)
(declare-fun x_58 () Bool)
(declare-fun x_59 () Bool)
(declare-fun x_60 () Bool)
(declare-fun x_61 () Bool)
(declare-fun x_62 () Real)
(declare-fun x_63 () Real)
(declare-fun x_64 () Real)
(declare-fun x_65 () Real)
(declare-fun x_66 () Real)
(declare-fun x_67 () Real)
(declare-fun x_68 () Real)
(declare-fun x_69 () Bool)
(declare-fun x_70 () Bool)
(declare-fun x_71 () Bool)
(declare-fun x_72 () Bool)
(declare-fun x_73 () Bool)
(declare-fun x_74 () Real)
(declare-fun x_75 () Real)
(declare-fun x_76 () Real)
(declare-fun x_77 () Real)
(declare-fun x_78 () Bool)
(declare-fun x_79 () Bool)
(declare-fun x_80 () Bool)
(declare-fun x_81 () Real)
(declare-fun x_82 () Real)
(declare-fun x_83 () Real)
(declare-fun x_84 () Real)
(declare-fun x_85 () Real)
(declare-fun x_86 () Real)
(declare-fun x_87 () Bool)
(assert (let ((?v_112 (+ x_18 x_0)) (?v_155 (<= x_1 x_5)) (?v_136 (= x_19 x_10)) (?v_83 (= x_22 0)) (?v_97 (< x_1 x_40)) (?v_121 (= x_5 x_1)) (?v_137 (= x_22 2)) (?v_145 (= x_41 x_42)) (?v_146 (and (= x_43 x_44) (= x_45 x_46))) (?v_134 (= x_47 x_48)) (?v_135 (and (= x_23 x_14) (= x_25 x_16))) (?v_147 (= x_49 x_50)) (?v_148 (and (= x_51 x_52) (= x_53 x_54))) (?v_107 (= x_55 x_40)) (?v_133 (= x_20 x_11)) (?v_131 (= x_56 x_57)) (?v_132 (and (= x_58 x_59) (= x_60 x_61))) (?v_149 (= x_21 x_12)) (?v_157 (- x_6 x_18)) (?v_84 (= x_22 1)) (?v_128 (+ x_0 x_18)) (?v_124 (<= x_2 x_5))) (let ((?v_130 (= x_41 (or x_42 (and ?v_124 x_57)))) (?v_114 (<= x_15 ?v_112)) (?v_116 (<= x_17 ?v_112)) (?v_113 (<= x_15 x_0)) (?v_115 (<= x_17 x_0)) (?v_109 (not x_44)) (?v_138 (< x_15 x_1)) (?v_139 (= x_5 x_15)) (?v_111 (not x_46)) (?v_140 (< x_17 x_1)) (?v_141 (= x_5 x_17)) (?v_100 (not x_42)) (?v_158 (not ?v_155)) (?v_118 (not x_59)) (?v_119 (not x_61)) (?v_120 (not x_57))) (let ((?v_108 (not ?v_113))) (let ((?v_122 (and ?v_108 (<= x_15 x_5))) (?v_110 (not ?v_115))) (let ((?v_123 (and ?v_110 (<= x_17 x_5)))) (let ((?v_129 (and (= x_43 (or x_44 (and ?v_122 x_59))) (= x_45 (or x_46 (and ?v_123 x_61))))) (?v_117 (<= x_2 ?v_112)) (?v_142 (< x_2 x_1)) (?v_143 (= x_5 x_2)) (?v_125 (not ?v_114)) (?v_126 (not ?v_116)) (?v_13 (and (not (<= x_2 x_0)) ?v_124)) (?v_14 (and (not (<= x_3 x_0)) (<= x_3 x_5)))) (let ((?v_127 (not ?v_117)) (?v_44 (+ x_18 x_5)) (?v_88 (<= x_6 x_32)) (?v_69 (= x_27 x_19)) (?v_24 (= x_30 0)) (?v_28 (< x_6 x_55)) (?v_54 (= x_32 x_6)) (?v_70 (= x_30 2)) (?v_78 (= x_70 x_41)) (?v_79 (and (= x_71 x_43) (= x_72 x_45))) (?v_67 (= x_73 x_47)) (?v_68 (and (= x_31 x_23) (= x_34 x_25))) (?v_80 (= x_74 x_49)) (?v_81 (and (= x_75 x_51) (= x_76 x_53))) (?v_38 (= x_77 x_55)) (?v_66 (= x_28 x_20)) (?v_64 (= x_78 x_56)) (?v_65 (and (= x_79 x_58) (= x_80 x_60))) (?v_82 (= x_29 x_21)) (?v_90 (- x_36 x_18)) (?v_39 (= x_30 1)) (?v_61 (+ x_5 x_18)) (?v_57 (<= x_7 x_32))) (let ((?v_63 (= x_70 (or x_41 (and ?v_57 x_56)))) (?v_47 (<= x_24 ?v_44)) (?v_49 (<= x_26 ?v_44)) (?v_46 (<= x_24 x_5)) (?v_48 (<= x_26 x_5)) (?v_41 (not x_43)) (?v_71 (< x_24 x_6)) (?v_72 (= x_32 x_24)) (?v_43 (not x_45)) (?v_73 (< x_26 x_6)) (?v_74 (= x_32 x_26)) (?v_31 (not x_41)) (?v_91 (not ?v_88)) (?v_51 (not x_58)) (?v_52 (not x_60)) (?v_53 (not x_56))) (let ((?v_40 (not ?v_46))) (let ((?v_55 (and ?v_40 (<= x_24 x_32))) (?v_42 (not ?v_48))) (let ((?v_56 (and ?v_42 (<= x_26 x_32)))) (let ((?v_62 (and (= x_71 (or x_43 (and ?v_55 x_58))) (= x_72 (or x_45 (and ?v_56 x_60))))) (?v_50 (<= x_7 ?v_44)) (?v_75 (< x_7 x_6)) (?v_76 (= x_32 x_7)) (?v_58 (not ?v_47)) (?v_59 (not ?v_49)) (?v_159 (not (<= x_7 x_5)))) (let ((?v_19 (and ?v_159 ?v_57)) (?v_160 (not (<= x_8 x_5)))) (let ((?v_20 (and ?v_160 (<= x_8 x_32))) (?v_60 (not ?v_50)) (?v_106 (= x_49 0)) (?v_96 (= x_49 3)) (?v_102 (= x_51 0)) (?v_94 (= x_51 3)) (?v_104 (= x_53 0)) (?v_95 (= x_53 3)) (?v_37 (= x_74 0)) (?v_27 (= x_74 3)) (?v_33 (= x_75 0)) (?v_25 (= x_75 3)) (?v_35 (= x_76 0)) (?v_26 (= x_76 3)) (?v_1 (not ?v_39)) (?v_0 (not ?v_70)) (?v_2 (< x_32 x_33)) (?v_3 (< x_32 x_35)) (?v_45 (not x_29)) (?v_87 (not (<= x_36 x_33))) (?v_89 (not (<= x_36 x_35))) (?v_92 (< x_37 x_38)) (?v_93 (< x_38 x_39)) (?v_86 (not ?v_83)) (?v_5 (not ?v_84)) (?v_4 (not ?v_137)) (?v_6 (< x_5 x_24)) (?v_7 (< x_5 x_26)) (?v_85 (not x_21)) (?v_154 (not (<= x_6 x_24))) (?v_156 (not (<= x_6 x_26))) (?v_161 (< x_7 x_8)) (?v_162 (< x_8 x_9)) (?v_150 (= x_13 0))) (let ((?v_153 (not ?v_150)) (?v_151 (= x_13 1))) (let ((?v_9 (not ?v_151)) (?v_8 (not (= x_13 2))) (?v_10 (< x_0 x_15)) (?v_11 (< x_0 x_17)) (?v_152 (not x_12)) (?v_15 (and (not (<= x_4 x_0)) (<= x_4 x_5))) (?v_21 (and (not (<= x_9 x_5)) (<= x_9 x_32))) (?v_29 (= x_75 (ite ?v_41 (ite (and ?v_55 (< x_51 3)) (+ x_51 1) x_51) x_51))) (?v_30 (= x_76 (ite ?v_43 (ite (and ?v_56 (< x_53 3)) (+ x_53 1) x_53) x_53))) (?v_32 (or x_43 ?v_25)) (?v_34 (or x_45 ?v_26)) (?v_36 (or x_41 ?v_27)) (?v_98 (= x_51 (ite ?v_109 (ite (and ?v_122 (< x_52 3)) (+ x_52 1) x_52) x_52))) (?v_99 (= x_53 (ite ?v_111 (ite (and ?v_123 (< x_54 3)) (+ x_54 1) x_54) x_54))) (?v_101 (or x_44 ?v_94)) (?v_103 (or x_46 ?v_95)) (?v_105 (or x_42 ?v_96)) (?v_12 (ite ?v_13 2 1)) (?v_16 (ite ?v_13 3 2)) (?v_17 (ite ?v_13 1 0)) (?v_18 (ite ?v_19 2 1)) (?v_22 (ite ?v_19 3 2)) (?v_23 (ite ?v_19 1 0)) (?v_77 (<= (ite x_47 (ite x_25 (ite x_23 3 2) x_81) (ite x_25 x_81 (ite x_23 1 0))) (* (* (ite x_41 (ite x_45 (ite x_43 0 1) x_82) (ite x_45 x_82 (ite x_43 2 3))) 1) (/ 1 2)))) (?v_144 (<= (ite x_48 (ite x_16 (ite x_14 3 2) x_62) (ite x_16 x_62 (ite x_14 1 0))) (* (* (ite x_42 (ite x_46 (ite x_44 0 1) x_63) (ite x_46 x_63 (ite x_44 2 3))) 1) (/ 1 2))))) (and (and (and (and (and (and (and (and (and (and (and (and (and (and (and (and (and (and (and (and (and (and (and (and (and (and (and (and (and (and (and (and (and (and (and (and (and (and (and (and (and (and (and (and (and (and (and (and (and (and (and (and (and (and (and (and (and (and (and (and (and (and (and (and (and (and (and (and (and (and (and (and (and (and (and (and (and (and (and (and (and (and (and (and (and (and (and (and (and (and (and (and (and (and (and (and (and (and (and (and (and (and (and (and (and (and (and (and (and (and (and (and (and (and (and (and (and (and (and (and (and (and (and (and (and (and (<= x_30 2) (>= x_30 0)) (<= x_22 2)) (>= x_22 0)) (<= x_13 2)) (>= x_13 0)) (>= x_0 0)) (>= x_1 0)) (>= x_2 0)) (>= x_3 0)) (>= x_4 0)) (>= x_5 0)) (>= x_6 0)) (>= x_7 0)) (>= x_8 0)) (>= x_9 0)) (>= x_15 0)) (>= x_17 0)) (> x_18 0)) (>= x_18 0)) (>= x_24 0)) (>= x_26 0)) (>= x_32 0)) (>= x_33 0)) (>= x_35 0)) (>= x_36 0)) (>= x_37 0)) (>= x_38 0)) (>= x_39 0)) (>= x_40 0)) (or (or (or ?v_106 (= x_49 1)) (= x_49 2)) ?v_96)) (not (< x_49 0))) (<= x_49 3)) (or (or (or (= x_50 0) (= x_50 1)) (= x_50 2)) (= x_50 3))) (not (< x_50 0))) (<= x_50 3)) (or (or (or ?v_102 (= x_51 1)) (= x_51 2)) ?v_94)) (not (< x_51 0))) (<= x_51 3)) (or (or (or (= x_52 0) (= x_52 1)) (= x_52 2)) (= x_52 3))) (not (< x_52 0))) (<= x_52 3)) (or (or (or ?v_104 (= x_53 1)) (= x_53 2)) ?v_95)) (not (< x_53 0))) (<= x_53 3)) (or (or (or (= x_54 0) (= x_54 1)) (= x_54 2)) (= x_54 3))) (not (< x_54 0))) (<= x_54 3)) (>= x_55 0)) (not (<= x_68 (* x_18 3)))) (>= x_68 0)) (or (or (or ?v_37 (= x_74 1)) (= x_74 2)) ?v_27)) (not (< x_74 0))) (<= x_74 3)) (or (or (or ?v_33 (= x_75 1)) (= x_75 2)) ?v_25)) (not (< x_75 0))) (<= x_75 3)) (or (or (or ?v_35 (= x_76 1)) (= x_76 2)) ?v_26)) (not (< x_76 0))) (<= x_76 3)) (>= x_77 0)) (< x_5 x_6)) (< x_5 x_7)) (< x_5 x_8)) (< x_5 x_9)) (< x_0 x_1)) (< x_0 x_2)) (< x_0 x_3)) (< x_0 x_4)) (or (not ?v_24) (and x_29 x_27))) (or ?v_1 (and x_28 x_27))) (or ?v_0 (and x_28 x_29))) (or ?v_0 (and (or x_31 ?v_2) (or x_34 ?v_3)))) (or (or ?v_1 ?v_45) (and ?v_2 ?v_3))) ?v_87) ?v_89) (< (- x_36 x_33) x_18)) (< (- x_36 x_35) x_18)) ?v_92) ?v_93) (or ?v_86 (and x_21 x_19))) (or ?v_5 (and x_20 x_19))) (or ?v_4 (and x_20 x_21))) (or ?v_4 (and (or x_23 ?v_6) (or x_25 ?v_7)))) (or (or ?v_5 ?v_85) (and ?v_6 ?v_7))) ?v_154) ?v_156) (< (- x_6 x_24) x_18)) (< (- x_6 x_26) x_18)) ?v_161) ?v_162) (or ?v_153 (and x_12 x_10))) (or ?v_9 (and x_11 x_10))) (or ?v_8 (and x_11 x_12))) (or ?v_8 (and (or x_14 ?v_10) (or x_16 ?v_11)))) (or (or ?v_9 ?v_152) (and ?v_10 ?v_11))) (not (<= x_1 x_15))) (not (<= x_1 x_17))) (< (- x_1 x_15) x_18)) (< (- x_1 x_17) x_18)) (< x_2 x_3)) (< x_3 x_4)) (= x_62 (ite x_14 2 1))) (= x_63 (ite x_44 1 2))) (= x_64 ?v_12)) (= x_65 ?v_12)) (= x_66 (+ (ite ?v_15 (ite ?v_14 ?v_16 x_64) (ite ?v_14 x_64 ?v_17)) x_50))) (= x_67 (+ (ite ?v_15 (ite ?v_14 ?v_16 x_65) (ite ?v_14 x_65 ?v_17)) x_50))) (= x_81 (ite x_23 2 1))) (= x_82 (ite x_43 1 2))) (= x_83 ?v_18)) (= x_84 ?v_18)) (= x_85 (+ (ite ?v_21 (ite ?v_20 ?v_22 x_83) (ite ?v_20 x_83 ?v_23)) x_49))) (= x_86 (+ (ite ?v_21 (ite ?v_20 ?v_22 x_84) (ite ?v_20 x_84 ?v_23)) x_49))) (or (or (and (and (and (and (and (and (or (and (and (and (and (and (and (and (and (and (and ?v_24 ?v_28) ?v_54) ?v_29) ?v_30) (= x_74 (ite ?v_31 (ite (not (< x_85 3)) 3 x_85) x_49))) (= x_71 ?v_32)) (= x_72 ?v_34)) (= x_70 ?v_36)) ?v_66) ?v_38) (and (and (and (and (and (and (and (and (and (and ?v_24 (not ?v_28)) x_28) (= x_32 x_55)) ?v_29) ?v_30) (= x_74 (ite ?v_31 (ite (not (< x_86 3)) 3 x_86) x_49))) (= x_71 (or ?v_32 ?v_33))) (= x_72 (or ?v_34 ?v_35))) (= x_70 (or ?v_36 ?v_37))) ?v_38)) ?v_64) ?v_65) ?v_82) ?v_67) ?v_68) ?v_69) (and (and (and (and (and (and (and (or (and (and (and (and (and (and (and (and (and (and (and ?v_39 (or (or (and (and (and ?v_40 ?v_41) ?v_51) ?v_47) (and (and (and ?v_42 ?v_43) ?v_52) ?v_49)) (and (and ?v_31 ?v_53) ?v_50))) ?v_45) (or (or (or (or ?v_46 ?v_58) x_58) x_43) (not (< x_32 x_24)))) (or (or (or (or ?v_48 ?v_59) x_60) x_45) (not (< x_32 x_26)))) (or (or (or ?v_60 x_56) x_41) (not (< x_32 x_7)))) (or (or (or (and (and (and (and ?v_51 ?v_41) ?v_47) ?v_71) ?v_72) (and (and (and (and ?v_52 ?v_43) ?v_49) ?v_73) ?v_74)) (and (and (and (and ?v_53 ?v_31) ?v_50) ?v_75) ?v_76)) (and (< x_6 ?v_61) ?v_54))) (= x_79 (or x_58 ?v_55))) (= x_80 (or x_60 ?v_56))) (= x_78 (or x_56 ?v_57))) ?v_62) ?v_63) (and (and (and (and (and (and (and (and (and ?v_39 (or (or (or ?v_46 x_58) x_43) ?v_58)) (or (or (or ?v_48 x_60) x_45) ?v_59)) (or (or x_56 x_41) ?v_60)) x_29) (= x_32 ?v_61)) ?v_62) ?v_63) ?v_64) ?v_65)) ?v_80) ?v_81) ?v_38) ?v_66) ?v_67) ?v_68) ?v_69)) (and (and (and (and (and (and (and (or (and (and (and (and (and (and (and (and (and (and (and ?v_70 ?v_77) (not x_27)) (or (or (or ?v_46 x_23) x_43) (<= x_32 x_24))) (or (or (or ?v_48 x_25) x_45) (<= x_32 x_26))) (or (or x_47 x_41) (<= x_32 x_7))) (or (or (or (and (and (and (and (not x_23) ?v_41) ?v_6) ?v_71) ?v_72) (and (and (and (and (not x_25) ?v_43) ?v_7) ?v_73) ?v_74)) (and (and (and (not x_47) ?v_31) ?v_75) ?v_76)) ?v_54)) (= x_31 (or x_23 (= x_24 x_32)))) (= x_34 (or x_25 (= x_26 x_32)))) (= x_73 (or x_47 (= x_7 x_32)))) ?v_78) ?v_79) (and (and (and (and (and (and (and ?v_70 (not ?v_77)) x_27) ?v_78) ?v_79) (= x_32 x_5)) ?v_67) ?v_68)) ?v_80) ?v_81) ?v_38) ?v_66) ?v_64) ?v_65) ?v_82))) (or (or (and ?v_83 (= x_30 (ite (not x_20) x_22 1))) (and ?v_84 (= x_30 (ite ?v_85 x_22 2)))) (and (and ?v_86 ?v_5) (= x_30 x_22)))) (or (and (and ?v_88 ?v_87) (not (<= x_33 ?v_90))) (and ?v_91 (= x_33 x_24)))) (or (and (and ?v_88 ?v_89) (not (<= x_35 ?v_90))) (and ?v_91 (= x_35 x_26)))) (or (and (and ?v_88 (= x_36 (+ x_6 x_68))) x_87) (and (and ?v_91 (not x_87)) (= x_36 x_6)))) (or (and (and (and (and ?v_57 (not (<= x_37 x_32))) (not (<= x_38 x_32))) ?v_92) ?v_93) (and (and (and (not ?v_57) (= x_37 x_7)) (= x_38 x_8)) (= x_39 x_9)))) (or (or (and (and (and (and (and (and (or (and (and (and (and (and (and (and (and (and (and ?v_83 ?v_97) ?v_121) ?v_98) ?v_99) (= x_49 (ite ?v_100 (ite (not (< x_66 3)) 3 x_66) x_50))) (= x_43 ?v_101)) (= x_45 ?v_103)) (= x_41 ?v_105)) ?v_133) ?v_107) (and (and (and (and (and (and (and (and (and (and ?v_83 (not ?v_97)) x_20) (= x_5 x_40)) ?v_98) ?v_99) (= x_49 (ite ?v_100 (ite (not (< x_67 3)) 3 x_67) x_50))) (= x_43 (or ?v_101 ?v_102))) (= x_45 (or ?v_103 ?v_104))) (= x_41 (or ?v_105 ?v_106))) ?v_107)) ?v_131) ?v_132) ?v_149) ?v_134) ?v_135) ?v_136) (and (and (and (and (and (and (and (or (and (and (and (and (and (and (and (and (and (and (and ?v_84 (or (or (and (and (and ?v_108 ?v_109) ?v_118) ?v_114) (and (and (and ?v_110 ?v_111) ?v_119) ?v_116)) (and (and ?v_100 ?v_120) ?v_117))) ?v_85) (or (or (or (or ?v_113 ?v_125) x_59) x_44) (not (< x_5 x_15)))) (or (or (or (or ?v_115 ?v_126) x_61) x_46) (not (< x_5 x_17)))) (or (or (or ?v_127 x_57) x_42) (not (< x_5 x_2)))) (or (or (or (and (and (and (and ?v_118 ?v_109) ?v_114) ?v_138) ?v_139) (and (and (and (and ?v_119 ?v_111) ?v_116) ?v_140) ?v_141)) (and (and (and (and ?v_120 ?v_100) ?v_117) ?v_142) ?v_143)) (and (< x_1 ?v_128) ?v_121))) (= x_58 (or x_59 ?v_122))) (= x_60 (or x_61 ?v_123))) (= x_56 (or x_57 ?v_124))) ?v_129) ?v_130) (and (and (and (and (and (and (and (and (and ?v_84 (or (or (or ?v_113 x_59) x_44) ?v_125)) (or (or (or ?v_115 x_61) x_46) ?v_126)) (or (or x_57 x_42) ?v_127)) x_21) (= x_5 ?v_128)) ?v_129) ?v_130) ?v_131) ?v_132)) ?v_147) ?v_148) ?v_107) ?v_133) ?v_134) ?v_135) ?v_136)) (and (and (and (and (and (and (and (or (and (and (and (and (and (and (and (and (and (and (and ?v_137 ?v_144) (not x_19)) (or (or (or ?v_113 x_14) x_44) (<= x_5 x_15))) (or (or (or ?v_115 x_16) x_46) (<= x_5 x_17))) (or (or x_48 x_42) (<= x_5 x_2))) (or (or (or (and (and (and (and (not x_14) ?v_109) ?v_10) ?v_138) ?v_139) (and (and (and (and (not x_16) ?v_111) ?v_11) ?v_140) ?v_141)) (and (and (and (not x_48) ?v_100) ?v_142) ?v_143)) ?v_121)) (= x_23 (or x_14 (= x_15 x_5)))) (= x_25 (or x_16 (= x_17 x_5)))) (= x_47 (or x_48 (= x_2 x_5)))) ?v_145) ?v_146) (and (and (and (and (and (and (and ?v_137 (not ?v_144)) x_19) ?v_145) ?v_146) (= x_5 x_0)) ?v_134) ?v_135)) ?v_147) ?v_148) ?v_107) ?v_133) ?v_131) ?v_132) ?v_149))) (or (or (and ?v_150 (= x_22 (ite (not x_11) x_13 1))) (and ?v_151 (= x_22 (ite ?v_152 x_13 2)))) (and (and ?v_153 ?v_9) (= x_22 x_13)))) (or (and (and ?v_155 ?v_154) (not (<= x_24 ?v_157))) (and ?v_158 (= x_24 x_15)))) (or (and (and ?v_155 ?v_156) (not (<= x_26 ?v_157))) (and ?v_158 (= x_26 x_17)))) (or (and (and ?v_155 (= x_6 (+ x_1 x_68))) x_69) (and (and ?v_158 (not x_69)) (= x_6 x_1)))) (or (and (and (and (and ?v_124 ?v_159) ?v_160) ?v_161) ?v_162) (and (and (and (not ?v_124) (= x_7 x_2)) (= x_8 x_3)) (= x_9 x_4)))) (or (or (or (not (< x_32 x_36)) (not (< x_32 x_37))) (not (< x_32 x_38))) (not (< x_32 x_39)))))))))))))))))))))
(check-sat)
(exit)
